59219
35,53,138,198,227,276,282,291,659,823,881,887,946,1150,1181,1189,1251,1514,1730,1866,1903,1987,2241,2368,2675,2758,2964,3091,3094,3209,3246,3347,3367,3379,3415,3468,3529,3566,3751,3801,3919,3956,4027,4038,4163,4195,4799,4822,5071,5169,5174,5216,5352,5714,5936,5990,6056,6091,6172,6188,6272,6367,6624,6647,6933,7019,7078,7085,7145,7211,7380,7436,7525,7970,7974,7988,8180,8254,8347,8375,8393,8394,8412,8474,8525,8615,8891,9250,9260,9419,9705,9745,9783,9795,9830,9863,9893
